p wcnf 197 394 395 
1 67 -174 0 
1 109 -161 0 
1 129 106 0 
1 -81 -128 0 
1 108 143 0 
1 -88 108 0 
1 156 -123 0 
1 172 -156 0 
1 183 171 0 
1 185 -80 0 
1 -176 -55 0 
1 84 -174 0 
1 174 173 0 
1 -64 -4 0 
1 -73 -104 0 
1 128 115 0 
1 76 -158 0 
1 103 69 0 
1 26 194 0 
1 162 83 0 
1 159 90 0 
1 -54 23 0 
1 -69 58 0 
1 164 -71 0 
1 56 133 0 
1 -19 7 0 
1 43 61 0 
1 86 -78 0 
1 -175 -166 0 
1 179 159 0 
1 -179 145 0 
1 94 147 0 
1 4 -82 0 
1 81 -115 0 
1 26 101 0 
1 106 45 0 
1 -166 -136 0 
1 -99 114 0 
1 -8 129 0 
1 -166 84 0 
1 196 29 0 
1 -76 168 0 
1 -85 -31 0 
1 -2 154 0 
1 187 112 0 
1 -166 -176 0 
1 36 -177 0 
1 25 -194 0 
1 29 2 0 
1 -161 -150 0 
1 90 167 0 
1 39 111 0 
1 -16 57 0 
1 144 -159 0 
1 124 133 0 
1 123 164 0 
1 26 -149 0 
1 -179 74 0 
1 -138 145 0 
1 183 174 0 
1 -24 -124 0 
1 -102 -64 0 
1 -62 32 0 
1 -88 -8 0 
1 58 -178 0 
1 71 -174 0 
1 169 155 0 
1 -9 -172 0 
1 -141 8 0 
1 156 48 0 
1 -15 -59 0 
1 -41 47 0 
1 -69 -142 0 
1 -146 -184 0 
1 -21 -71 0 
1 188 23 0 
1 -41 -18 0 
1 61 -73 0 
1 -136 -29 0 
1 -164 -128 0 
1 -113 93 0 
1 -160 135 0 
1 -39 176 0 
1 -34 76 0 
1 182 -133 0 
1 17 -33 0 
1 121 8 0 
1 -128 151 0 
1 -44 195 0 
1 114 36 0 
1 -124 129 0 
1 -130 156 0 
1 52 -142 0 
1 -92 -63 0 
1 -55 -180 0 
1 -90 -155 0 
1 55 97 0 
1 -157 107 0 
1 1 82 0 
1 -34 126 0 
1 -117 -172 0 
1 -144 71 0 
1 -51 181 0 
1 150 -132 0 
1 -79 186 0 
1 -191 60 0 
1 -109 -196 0 
1 155 81 0 
1 94 164 0 
1 -6 -128 0 
1 -30 160 0 
1 63 -171 0 
1 76 119 0 
1 -5 -118 0 
1 132 106 0 
1 28 -64 0 
1 -38 -184 0 
1 -160 82 0 
1 -40 182 0 
1 -111 115 0 
1 115 -151 0 
1 -93 -59 0 
1 -155 -59 0 
1 10 -144 0 
1 -182 4 0 
1 13 163 0 
1 165 -34 0 
1 -129 -161 0 
1 -45 86 0 
1 -80 37 0 
1 148 -120 0 
1 -93 -177 0 
1 29 174 0 
1 58 -187 0 
1 117 -187 0 
1 -28 121 0 
1 -110 62 0 
1 -67 3 0 
1 96 -65 0 
1 37 -167 0 
1 12 124 0 
1 -115 90 0 
1 186 -116 0 
1 -87 -137 0 
1 88 -72 0 
1 165 189 0 
1 -13 163 0 
1 48 -100 0 
1 -152 33 0 
1 77 -187 0 
1 -17 -157 0 
1 175 96 0 
1 98 -155 0 
1 -66 76 0 
1 55 -63 0 
1 69 -154 0 
1 -94 -63 0 
1 70 -196 0 
1 32 -131 0 
1 65 160 0 
1 64 -109 0 
1 -59 -56 0 
1 -12 -37 0 
1 -53 32 0 
1 -151 115 0 
1 -52 61 0 
1 -190 49 0 
1 61 -54 0 
1 -29 61 0 
1 -95 -121 0 
1 77 -114 0 
1 58 -82 0 
1 174 -22 0 
1 -193 55 0 
1 -93 184 0 
1 66 -39 0 
1 -70 -144 0 
1 139 177 0 
1 -145 154 0 
1 -53 38 0 
1 147 68 0 
1 -164 158 0 
1 66 -96 0 
1 -170 -104 0 
1 190 -185 0 
1 -181 -51 0 
1 -69 -21 0 
1 74 156 0 
1 8 70 0 
1 167 -175 0 
1 78 -41 0 
1 176 52 0 
1 -197 -191 0 
1 -192 -79 0 
1 -148 175 0 
1 146 -43 0 
1 -85 11 0 
1 -85 -159 0 
1 55 -191 0 
1 59 -192 0 
1 2 76 0 
1 -169 -135 0 
1 191 61 0 
1 186 37 0 
1 -63 -31 0 
1 103 36 0 
1 -139 -181 0 
1 -193 2 0 
1 -79 131 0 
1 129 21 0 
1 -68 139 0 
1 -136 112 0 
1 -139 29 0 
1 151 165 0 
1 -98 128 0 
1 161 133 0 
1 -11 189 0 
1 7 102 0 
1 196 -3 0 
1 -73 194 0 
1 -69 -25 0 
1 123 20 0 
1 105 114 0 
1 138 -157 0 
1 -99 -37 0 
1 -91 93 0 
1 87 -106 0 
1 152 -23 0 
1 -84 107 0 
1 106 -83 0 
1 49 -152 0 
1 88 160 0 
1 37 171 0 
1 -180 171 0 
1 -34 -6 0 
1 -176 107 0 
1 -5 113 0 
1 -176 114 0 
1 41 139 0 
1 130 -150 0 
1 -102 100 0 
1 -119 -139 0 
1 152 -52 0 
1 -102 -101 0 
1 -165 -84 0 
1 119 -111 0 
1 100 142 0 
1 -167 88 0 
1 -2 103 0 
1 -178 -127 0 
1 -120 157 0 
1 -150 -90 0 
1 36 194 0 
1 70 132 0 
1 -82 -141 0 
1 -40 -127 0 
1 154 -193 0 
1 179 189 0 
1 -184 66 0 
1 -114 -6 0 
1 -173 180 0 
1 -185 -125 0 
1 -8 101 0 
1 -115 57 0 
1 151 -176 0 
1 22 120 0 
1 73 163 0 
1 -157 88 0 
1 -182 139 0 
1 -151 149 0 
1 -186 169 0 
1 -10 -7 0 
1 21 42 0 
1 -182 -78 0 
1 10 -139 0 
1 56 79 0 
1 85 191 0 
1 -126 -22 0 
1 197 176 0 
1 -109 -164 0 
1 -102 -182 0 
1 -73 -88 0 
1 84 -68 0 
1 -171 -54 0 
1 116 -155 0 
1 -179 -155 0 
1 -31 -16 0 
1 -171 52 0 
1 -149 -196 0 
1 -56 136 0 
1 176 10 0 
1 -35 4 0 
1 125 189 0 
1 -181 -35 0 
1 176 134 0 
1 144 192 0 
1 89 -164 0 
1 -150 -140 0 
1 -80 -38 0 
1 -21 52 0 
1 72 123 0 
1 -116 93 0 
1 -104 55 0 
1 -122 -83 0 
1 -39 59 0 
1 186 -63 0 
1 -34 -111 0 
1 24 188 0 
1 47 -53 0 
1 -125 -148 0 
1 109 -174 0 
1 149 187 0 
1 20 -148 0 
1 7 -51 0 
1 -162 -137 0 
1 -8 32 0 
1 42 93 0 
1 194 -35 0 
1 -166 170 0 
1 -76 85 0 
1 125 192 0 
1 -122 -5 0 
1 -24 -143 0 
1 113 155 0 
1 -19 50 0 
1 28 54 0 
1 -172 -70 0 
1 18 -129 0 
1 -95 72 0 
1 162 1 0 
1 -136 59 0 
1 100 -105 0 
1 -67 -109 0 
1 -48 -11 0 
1 -70 92 0 
1 85 -145 0 
1 179 195 0 
1 64 -137 0 
1 67 65 0 
1 -2 4 0 
1 178 181 0 
1 82 44 0 
1 -48 130 0 
1 -131 115 0 
1 125 -66 0 
1 -155 -194 0 
1 -2 -1 0 
1 -170 -117 0 
1 -37 -55 0 
1 43 106 0 
1 163 -142 0 
1 153 131 0 
1 -172 46 0 
1 187 92 0 
1 48 -23 0 
1 91 -25 0 
1 134 99 0 
1 -124 142 0 
1 -196 75 0 
1 145 9 0 
1 123 -57 0 
1 22 -11 0 
1 -150 136 0 
1 -24 104 0 
1 15 142 0 
1 -34 -92 0 
1 -157 -73 0 
1 87 130 0 
1 41 -114 0 
1 -119 12 0 
1 33 -1 0 
1 -33 95 0 
1 -188 -83 0 
1 135 137 0 
1 62 -91 0 
1 50 -151 0 
1 -168 151 0 
1 -18 139 0 
1 142 109 0 
1 114 -2 0 
1 122 137 0 
1 -89 180 0 
1 -23 -69 0 
1 -25 170 0 
1 95 -55 0 
1 -68 -11 0 
1 2 178 0 
1 -101 -4 0 
1 -122 -31 0 
1 141 -55 0 
1 140 98 0 
1 101 -145 0 
1 41 16 0 
1 1 162 0 
